sat
(
(define-fun a1 () String "77777777777777777777777777777777777777777777777777777777777777777777777777777777777777777777777777777777777777777777777777777777777")
(define-fun a2 () String "77777777777777777777777777777777777777777777777777777777777777777777777777777777777777777777777777777777777777777777777777777777777")
(define-fun a3 () String "77777777777777777777777777777777777777777777777777777777777777777777777777777777777777777777777777777777777777777777777777777777777")
(define-fun a4 () String "77777777777777777777777777777777777777777777777777777777777777777777777777777777777777777777777777777777777777777777777777777777777")
(define-fun a5 () String "77777777777777777777777777777777777777777777777777777777777777777777777777777777777777777777777777777777777777777777777777777777777")
(define-fun a6 () String "77777777777777777777777777777777777777777777777777777777777777777777777777777777777777777777777777777777777777777777777777777777777")
(define-fun a7 () String "77777777777777777777777777777777777777777777777777777777777777777777777777777777777777777777777777777777777777777777777777777777777")
(define-fun a8 () String "77777777777777777777777777777777777777777777777777777777777777777777777777777777777777777777777777777777777777777777777777777777777")
(define-fun a9 () String "77777777777777777777777777777777777777777777777777777777777777777777777777777777777777777777777777777777777777777777777777777777777")
(define-fun a10 () String "77777777777777777777777777777777777777777777777777777777777777777777777777777777777777777777777777777777777777777777777777777777777")
(define-fun a11 () String "77777777777777777777777777777777777777777777777777777777777777777777777777777777777777777777777777777777777777777777777777777777777")
(define-fun a12 () String "77777777777777777777777777777777777777777777777777777777777777777777777777777777777777777777777777777777777777777777777777777777")
(define-fun a13 () String "77777777777777777777777777777777777777777777777777777777777777777777777777777777777777777777777777777777777777777777777777777777")
(define-fun a14 () String "77777777777777777777777777777777777777777777777777777777777777777777777777777777777777777777777777777777777777777777777777777777")
(define-fun a15 () String "77777777777777777777777777777777777777777777777777777777777777777777777777777777777777777777777777777777777777777777777777777777")
(define-fun a16 () String "77777777777777777777777777777777777777777777777777777777777777777777777777777777777777777777777777777777777777777777777777777777")
(define-fun a17 () String "77777777777777777777777777777777777777777777777777777777777777777777777777777777777777777777777777777777777777777777777777777777")
(define-fun a18 () String "77777777777777777777777777777777777777777777777777777777777777777777777777777777777777777777777777777777777777777777777777777777")
(define-fun a19 () String "77777777777777777777777777777777777777777777777777777777777777777777777777777777777777777777777777777777777777777777777777777777")
(define-fun a20 () String "77777777777777777777777777777777777777777777777777777777777777777777777777777777777777777777777777777777777777777777777777777777")
(define-fun a21 () String "77777777777777777777777777777777777777777777777777777777777777777777777777777777777777777777777777777777777777777777777777777777")
(define-fun a22 () String "77777777777777777777777777777777777777777777777777777777777777777777777777777777777777777777777777777777777777777777777777777777")
)
